units lj
atom_style atomic
boundary p p p
timestep 0.001

read_data interface_tension.atoms

mass 1 1.0

pair_style lj/cut 3.0
pair_coeff 1 1 1.0 1.0 3.0

neighbor 0.3 bin
neigh_modify every 20 delay 0 check no

fix 1 all nvt temp 0.7 0.7 0.1

variable energy equal etotal
variable temperature equal temp
variable pressure equal pressure

compute layers all chunk/atom bin/1d z lower 0.001 units reduced
compute tempid all temp
compute stress all stress/atom NULL
compute stress2 all pressure thermo_temp

fix binave all ave/chunk 1 100000 100000 layers density/mass temp c_stress[*] file stress_tensor.dat ave running norm none

dump id all custom 100000 interface_tension.lammpstrj id type x y z vx vy vz

thermo 5000
run 3000000
